############################## T =  3
Academic license - for non-commercial use only
Changed value of parameter lazyConstraints to 1
   Prev: 0  Min: 0  Max: 1  Default: 0
Optimize a model with 162 rows, 24 columns and 528 nonzeros
Model has 40 quadratic objective terms
Variable types: 0 continuous, 24 integer (24 binary)
Coefficient statistics:
  Matrix range     [1e+00, 1e+00]
  Objective range  [0e+00, 0e+00]
  QObjective range [3e+01, 3e+04]
  Bounds range     [1e+00, 1e+00]
  RHS range        [1e+00, 2e+00]
Found heuristic solution: objective 13817.000000
Presolve removed 60 rows and 6 columns
Presolve time: 0.00s
Presolved: 142 rows, 58 columns, 434 nonzeros
Variable types: 0 continuous, 58 integer (58 binary)

Root relaxation: objective 0.000000e+00, 8 iterations, 0.00 seconds

    Nodes    |    Current Node    |     Objective Bounds      |     Work
 Expl Unexpl |  Obj  Depth IntInf | Incumbent    BestBd   Gap | It/Node Time

     0     0    0.00000    0    6 13817.0000    0.00000   100%     -    0s
     0     0    0.00000    0    9 13817.0000    0.00000   100%     -    0s
     0     0    0.00000    0    8 13817.0000    0.00000   100%     -    0s
     0     0    0.00000    0    6 13817.0000    0.00000   100%     -    0s
     0     0    0.00000    0    6 13817.0000    0.00000   100%     -    0s
     0     2    0.00000    0    6 13817.0000    0.00000   100%     -    0s

Cutting planes:
  Gomory: 1
  Zero half: 6

Explored 30 nodes (192 simplex iterations) in 0.05 seconds
Thread count was 4 (of 4 available processors)

Solution count 1: 13817 

Optimal solution found (tolerance 1.00e-04)
Best objective 1.381700000000e+04, best bound 1.381700000000e+04, gap 0.0000%

Optimal cost: 13817
print out solution in ascending timestep
timestep  0 :  97390
timestep  1 :  108813
timestep  2 :  120326
{(0, 0): 0.0, (0, 1): 1.0, (0, 2): 1.0, (1, 0): 0.0, (1, 1): 0.0, (1, 2): 1.0, (2, 0): 0.0, (2, 1): 0.0, (2, 2): 1.0}
SOLVED AT T =  3
